n = 57;
rows = 684;
supports = [|
    1,2,
  | 1,3,
  | 1,4,
  | 1,5,
  | 1,6,
  | 1,7,
  | 1,52,
  | 1,53,
  | 1,54,
  | 1,55,
  | 1,56,
  | 1,57,
  | 2,1,
  | 2,3,
  | 2,4,
  | 2,5,
  | 2,6,
  | 2,7,
  | 2,8,
  | 2,53,
  | 2,54,
  | 2,55,
  | 2,56,
  | 2,57,
  | 3,1,
  | 3,2,
  | 3,4,
  | 3,5,
  | 3,6,
  | 3,7,
  | 3,8,
  | 3,9,
  | 3,54,
  | 3,55,
  | 3,56,
  | 3,57,
  | 4,1,
  | 4,2,
  | 4,3,
  | 4,5,
  | 4,6,
  | 4,7,
  | 4,8,
  | 4,9,
  | 4,10,
  | 4,55,
  | 4,56,
  | 4,57,
  | 5,1,
  | 5,2,
  | 5,3,
  | 5,4,
  | 5,6,
  | 5,7,
  | 5,8,
  | 5,9,
  | 5,10,
  | 5,11,
  | 5,56,
  | 5,57,
  | 6,1,
  | 6,2,
  | 6,3,
  | 6,4,
  | 6,5,
  | 6,7,
  | 6,8,
  | 6,9,
  | 6,10,
  | 6,11,
  | 6,12,
  | 6,57,
  | 7,1,
  | 7,2,
  | 7,3,
  | 7,4,
  | 7,5,
  | 7,6,
  | 7,8,
  | 7,9,
  | 7,10,
  | 7,11,
  | 7,12,
  | 7,13,
  | 8,2,
  | 8,3,
  | 8,4,
  | 8,5,
  | 8,6,
  | 8,7,
  | 8,9,
  | 8,10,
  | 8,11,
  | 8,12,
  | 8,13,
  | 8,14,
  | 9,3,
  | 9,4,
  | 9,5,
  | 9,6,
  | 9,7,
  | 9,8,
  | 9,10,
  | 9,11,
  | 9,12,
  | 9,13,
  | 9,14,
  | 9,15,
  | 10,4,
  | 10,5,
  | 10,6,
  | 10,7,
  | 10,8,
  | 10,9,
  | 10,11,
  | 10,12,
  | 10,13,
  | 10,14,
  | 10,15,
  | 10,16,
  | 11,5,
  | 11,6,
  | 11,7,
  | 11,8,
  | 11,9,
  | 11,10,
  | 11,12,
  | 11,13,
  | 11,14,
  | 11,15,
  | 11,16,
  | 11,17,
  | 12,6,
  | 12,7,
  | 12,8,
  | 12,9,
  | 12,10,
  | 12,11,
  | 12,13,
  | 12,14,
  | 12,15,
  | 12,16,
  | 12,17,
  | 12,18,
  | 13,7,
  | 13,8,
  | 13,9,
  | 13,10,
  | 13,11,
  | 13,12,
  | 13,14,
  | 13,15,
  | 13,16,
  | 13,17,
  | 13,18,
  | 13,19,
  | 14,8,
  | 14,9,
  | 14,10,
  | 14,11,
  | 14,12,
  | 14,13,
  | 14,15,
  | 14,16,
  | 14,17,
  | 14,18,
  | 14,19,
  | 14,20,
  | 15,9,
  | 15,10,
  | 15,11,
  | 15,12,
  | 15,13,
  | 15,14,
  | 15,16,
  | 15,17,
  | 15,18,
  | 15,19,
  | 15,20,
  | 15,21,
  | 16,10,
  | 16,11,
  | 16,12,
  | 16,13,
  | 16,14,
  | 16,15,
  | 16,17,
  | 16,18,
  | 16,19,
  | 16,20,
  | 16,21,
  | 16,22,
  | 17,11,
  | 17,12,
  | 17,13,
  | 17,14,
  | 17,15,
  | 17,16,
  | 17,18,
  | 17,19,
  | 17,20,
  | 17,21,
  | 17,22,
  | 17,23,
  | 18,12,
  | 18,13,
  | 18,14,
  | 18,15,
  | 18,16,
  | 18,17,
  | 18,19,
  | 18,20,
  | 18,21,
  | 18,22,
  | 18,23,
  | 18,24,
  | 19,13,
  | 19,14,
  | 19,15,
  | 19,16,
  | 19,17,
  | 19,18,
  | 19,20,
  | 19,21,
  | 19,22,
  | 19,23,
  | 19,24,
  | 19,25,
  | 20,14,
  | 20,15,
  | 20,16,
  | 20,17,
  | 20,18,
  | 20,19,
  | 20,21,
  | 20,22,
  | 20,23,
  | 20,24,
  | 20,25,
  | 20,26,
  | 21,15,
  | 21,16,
  | 21,17,
  | 21,18,
  | 21,19,
  | 21,20,
  | 21,22,
  | 21,23,
  | 21,24,
  | 21,25,
  | 21,26,
  | 21,27,
  | 22,16,
  | 22,17,
  | 22,18,
  | 22,19,
  | 22,20,
  | 22,21,
  | 22,23,
  | 22,24,
  | 22,25,
  | 22,26,
  | 22,27,
  | 22,28,
  | 23,17,
  | 23,18,
  | 23,19,
  | 23,20,
  | 23,21,
  | 23,22,
  | 23,24,
  | 23,25,
  | 23,26,
  | 23,27,
  | 23,28,
  | 23,29,
  | 24,18,
  | 24,19,
  | 24,20,
  | 24,21,
  | 24,22,
  | 24,23,
  | 24,25,
  | 24,26,
  | 24,27,
  | 24,28,
  | 24,29,
  | 24,30,
  | 25,19,
  | 25,20,
  | 25,21,
  | 25,22,
  | 25,23,
  | 25,24,
  | 25,26,
  | 25,27,
  | 25,28,
  | 25,29,
  | 25,30,
  | 25,31,
  | 26,20,
  | 26,21,
  | 26,22,
  | 26,23,
  | 26,24,
  | 26,25,
  | 26,27,
  | 26,28,
  | 26,29,
  | 26,30,
  | 26,31,
  | 26,32,
  | 27,21,
  | 27,22,
  | 27,23,
  | 27,24,
  | 27,25,
  | 27,26,
  | 27,28,
  | 27,29,
  | 27,30,
  | 27,31,
  | 27,32,
  | 27,33,
  | 28,22,
  | 28,23,
  | 28,24,
  | 28,25,
  | 28,26,
  | 28,27,
  | 28,29,
  | 28,30,
  | 28,31,
  | 28,32,
  | 28,33,
  | 28,34,
  | 29,23,
  | 29,24,
  | 29,25,
  | 29,26,
  | 29,27,
  | 29,28,
  | 29,30,
  | 29,31,
  | 29,32,
  | 29,33,
  | 29,34,
  | 29,35,
  | 30,24,
  | 30,25,
  | 30,26,
  | 30,27,
  | 30,28,
  | 30,29,
  | 30,31,
  | 30,32,
  | 30,33,
  | 30,34,
  | 30,35,
  | 30,36,
  | 31,25,
  | 31,26,
  | 31,27,
  | 31,28,
  | 31,29,
  | 31,30,
  | 31,32,
  | 31,33,
  | 31,34,
  | 31,35,
  | 31,36,
  | 31,37,
  | 32,26,
  | 32,27,
  | 32,28,
  | 32,29,
  | 32,30,
  | 32,31,
  | 32,33,
  | 32,34,
  | 32,35,
  | 32,36,
  | 32,37,
  | 32,38,
  | 33,27,
  | 33,28,
  | 33,29,
  | 33,30,
  | 33,31,
  | 33,32,
  | 33,34,
  | 33,35,
  | 33,36,
  | 33,37,
  | 33,38,
  | 33,39,
  | 34,28,
  | 34,29,
  | 34,30,
  | 34,31,
  | 34,32,
  | 34,33,
  | 34,35,
  | 34,36,
  | 34,37,
  | 34,38,
  | 34,39,
  | 34,40,
  | 35,29,
  | 35,30,
  | 35,31,
  | 35,32,
  | 35,33,
  | 35,34,
  | 35,36,
  | 35,37,
  | 35,38,
  | 35,39,
  | 35,40,
  | 35,41,
  | 36,30,
  | 36,31,
  | 36,32,
  | 36,33,
  | 36,34,
  | 36,35,
  | 36,37,
  | 36,38,
  | 36,39,
  | 36,40,
  | 36,41,
  | 36,42,
  | 37,31,
  | 37,32,
  | 37,33,
  | 37,34,
  | 37,35,
  | 37,36,
  | 37,38,
  | 37,39,
  | 37,40,
  | 37,41,
  | 37,42,
  | 37,43,
  | 38,32,
  | 38,33,
  | 38,34,
  | 38,35,
  | 38,36,
  | 38,37,
  | 38,39,
  | 38,40,
  | 38,41,
  | 38,42,
  | 38,43,
  | 38,44,
  | 39,33,
  | 39,34,
  | 39,35,
  | 39,36,
  | 39,37,
  | 39,38,
  | 39,40,
  | 39,41,
  | 39,42,
  | 39,43,
  | 39,44,
  | 39,45,
  | 40,34,
  | 40,35,
  | 40,36,
  | 40,37,
  | 40,38,
  | 40,39,
  | 40,41,
  | 40,42,
  | 40,43,
  | 40,44,
  | 40,45,
  | 40,46,
  | 41,35,
  | 41,36,
  | 41,37,
  | 41,38,
  | 41,39,
  | 41,40,
  | 41,42,
  | 41,43,
  | 41,44,
  | 41,45,
  | 41,46,
  | 41,47,
  | 42,36,
  | 42,37,
  | 42,38,
  | 42,39,
  | 42,40,
  | 42,41,
  | 42,43,
  | 42,44,
  | 42,45,
  | 42,46,
  | 42,47,
  | 42,48,
  | 43,37,
  | 43,38,
  | 43,39,
  | 43,40,
  | 43,41,
  | 43,42,
  | 43,44,
  | 43,45,
  | 43,46,
  | 43,47,
  | 43,48,
  | 43,49,
  | 44,38,
  | 44,39,
  | 44,40,
  | 44,41,
  | 44,42,
  | 44,43,
  | 44,45,
  | 44,46,
  | 44,47,
  | 44,48,
  | 44,49,
  | 44,50,
  | 45,39,
  | 45,40,
  | 45,41,
  | 45,42,
  | 45,43,
  | 45,44,
  | 45,46,
  | 45,47,
  | 45,48,
  | 45,49,
  | 45,50,
  | 45,51,
  | 46,40,
  | 46,41,
  | 46,42,
  | 46,43,
  | 46,44,
  | 46,45,
  | 46,47,
  | 46,48,
  | 46,49,
  | 46,50,
  | 46,51,
  | 46,52,
  | 47,41,
  | 47,42,
  | 47,43,
  | 47,44,
  | 47,45,
  | 47,46,
  | 47,48,
  | 47,49,
  | 47,50,
  | 47,51,
  | 47,52,
  | 47,53,
  | 48,42,
  | 48,43,
  | 48,44,
  | 48,45,
  | 48,46,
  | 48,47,
  | 48,49,
  | 48,50,
  | 48,51,
  | 48,52,
  | 48,53,
  | 48,54,
  | 49,43,
  | 49,44,
  | 49,45,
  | 49,46,
  | 49,47,
  | 49,48,
  | 49,50,
  | 49,51,
  | 49,52,
  | 49,53,
  | 49,54,
  | 49,55,
  | 50,44,
  | 50,45,
  | 50,46,
  | 50,47,
  | 50,48,
  | 50,49,
  | 50,51,
  | 50,52,
  | 50,53,
  | 50,54,
  | 50,55,
  | 50,56,
  | 51,45,
  | 51,46,
  | 51,47,
  | 51,48,
  | 51,49,
  | 51,50,
  | 51,52,
  | 51,53,
  | 51,54,
  | 51,55,
  | 51,56,
  | 51,57,
  | 52,1,
  | 52,46,
  | 52,47,
  | 52,48,
  | 52,49,
  | 52,50,
  | 52,51,
  | 52,53,
  | 52,54,
  | 52,55,
  | 52,56,
  | 52,57,
  | 53,1,
  | 53,2,
  | 53,47,
  | 53,48,
  | 53,49,
  | 53,50,
  | 53,51,
  | 53,52,
  | 53,54,
  | 53,55,
  | 53,56,
  | 53,57,
  | 54,1,
  | 54,2,
  | 54,3,
  | 54,48,
  | 54,49,
  | 54,50,
  | 54,51,
  | 54,52,
  | 54,53,
  | 54,55,
  | 54,56,
  | 54,57,
  | 55,1,
  | 55,2,
  | 55,3,
  | 55,4,
  | 55,49,
  | 55,50,
  | 55,51,
  | 55,52,
  | 55,53,
  | 55,54,
  | 55,56,
  | 55,57,
  | 56,1,
  | 56,2,
  | 56,3,
  | 56,4,
  | 56,5,
  | 56,50,
  | 56,51,
  | 56,52,
  | 56,53,
  | 56,54,
  | 56,55,
  | 56,57,
  | 57,1,
  | 57,2,
  | 57,3,
  | 57,4,
  | 57,5,
  | 57,6,
  | 57,51,
  | 57,52,
  | 57,53,
  | 57,54,
  | 57,55,
  | 57,56 |];

t = 127;

indexes = [|
    0,18,
  | 1,43,
  | 1,49,
  | 2,15,
  | 2,23,
  | 2,33,
  | 3,11,
  | 3,18,
  | 3,28,
  | 3,47,
  | 3,50,
  | 3,51,
  | 3,52,
  | 3,56,
  | 4,5,
  | 4,6,
  | 4,7,
  | 4,26,
  | 4,36,
  | 5,6,
  | 5,7,
  | 5,26,
  | 5,30,
  | 5,32,
  | 6,7,
  | 6,26,
  | 6,30,
  | 6,32,
  | 7,9,
  | 7,14,
  | 7,24,
  | 7,26,
  | 7,31,
  | 7,36,
  | 7,37,
  | 8,13,
  | 8,16,
  | 8,19,
  | 8,25,
  | 8,29,
  | 9,36,
  | 9,37,
  | 10,40,
  | 10,44,
  | 11,18,
  | 11,30,
  | 11,56,
  | 12,22,
  | 13,16,
  | 13,17,
  | 13,19,
  | 13,25,
  | 13,40,
  | 14,24,
  | 14,31,
  | 15,23,
  | 15,55,
  | 16,19,
  | 16,25,
  | 16,29,
  | 16,41,
  | 16,42,
  | 16,48,
  | 16,53,
  | 16,54,
  | 17,25,
  | 17,40,
  | 18,30,
  | 18,56,
  | 19,25,
  | 19,29,
  | 20,23,
  | 20,34,
  | 20,35,
  | 20,38,
  | 20,45,
  | 21,28,
  | 21,34,
  | 21,44,
  | 21,45,
  | 21,50,
  | 21,52,
  | 22,27,
  | 22,50,
  | 22,52,
  | 23,33,
  | 23,34,
  | 23,35,
  | 23,38,
  | 23,45,
  | 23,46,
  | 23,55,
  | 25,40,
  | 26,36,
  | 27,50,
  | 27,52,
  | 28,34,
  | 28,44,
  | 28,45,
  | 28,47,
  | 28,50,
  | 28,52,
  | 29,42,
  | 30,32,
  | 30,51,
  | 30,56,
  | 31,37,
  | 32,50,
  | 32,52,
  | 33,46,
  | 34,38,
  | 34,45,
  | 35,38,
  | 35,46,
  | 38,45,
  | 39,40,
  | 41,48,
  | 42,54,
  | 47,56,
  | 48,53,
  | 49,50,
  | 49,52,
  | 50,52,
  | 50,56,
  | 51,56,
  | 52,56,
  | 53,54 |];

